(set-info :smt-lib-version 2.6)
(set-logic QF_NIA)
(set-info :source |
Generated by: Cristina Borralleras, Daniel Larraz, Albert Oliveras, Enric Rodriguez-Carbonell, Albert Rubio
Generated on: 2017-04-27
Generator: VeryMax
Application: Termination proving
Target solver: barcelogic
|)
(set-info :license "https://creativecommons.org/licenses/by/4.0/")
(set-info :category "industrial")
(set-info :status unknown)
(declare-fun Nl2arg11 () Int)
(declare-fun Nl2arg21 () Int)
(declare-fun Nl2arg31 () Int)
(declare-fun Nl2arg41 () Int)
(declare-fun Nl2arg12 () Int)
(declare-fun Nl2arg22 () Int)
(declare-fun Nl2arg32 () Int)
(declare-fun Nl2arg42 () Int)
(declare-fun lam0n0 () Int)
(declare-fun lam0n1 () Int)
(declare-fun lam0n2 () Int)
(declare-fun lam0n3 () Int)
(declare-fun lam0n4 () Int)
(declare-fun lam0n5 () Int)
(declare-fun UndefCntr0_CT () Int)
(declare-fun Nl2CT1 () Int)
(declare-fun Nl2CT2 () Int)
(declare-fun UndefCntr0_arg1 () Int)
(declare-fun UndefCntr0_arg2 () Int)
(declare-fun UndefCntr0_arg3 () Int)
(declare-fun UndefCntr0_arg4 () Int)
(declare-fun UndefCntr0_undef49 () Int)
(declare-fun UndefCntr0_undef50 () Int)
(declare-fun UndefCntr0_undef51 () Int)
(declare-fun UndefCntr0_undef52 () Int)
(declare-fun lam1n0 () Int)
(declare-fun lam1n1 () Int)
(declare-fun lam1n2 () Int)
(declare-fun lam1n3 () Int)
(declare-fun lam1n4 () Int)
(declare-fun lam1n5 () Int)
(declare-fun lam2n0 () Int)
(declare-fun lam2n1 () Int)
(declare-fun lam2n2 () Int)
(declare-fun lam2n3 () Int)
(declare-fun lam2n4 () Int)
(declare-fun lam2n5 () Int)
(declare-fun lam3n0 () Int)
(declare-fun lam3n1 () Int)
(declare-fun lam3n2 () Int)
(declare-fun lam3n3 () Int)
(declare-fun lam3n4 () Int)
(declare-fun lam3n5 () Int)
(declare-fun UndefCntr1_CT () Int)
(declare-fun UndefCntr1_arg1 () Int)
(declare-fun UndefCntr1_arg2 () Int)
(declare-fun UndefCntr1_arg3 () Int)
(declare-fun UndefCntr1_arg4 () Int)
(declare-fun UndefCntr1_undef53 () Int)
(declare-fun UndefCntr1_undef54 () Int)
(declare-fun UndefCntr1_undef55 () Int)
(declare-fun UndefCntr1_undef56 () Int)
(declare-fun lam4n0 () Int)
(declare-fun lam4n1 () Int)
(declare-fun lam4n2 () Int)
(declare-fun lam4n3 () Int)
(declare-fun lam4n4 () Int)
(declare-fun lam4n5 () Int)
(declare-fun lam5n0 () Int)
(declare-fun lam5n1 () Int)
(declare-fun lam5n2 () Int)
(declare-fun lam5n3 () Int)
(declare-fun lam5n4 () Int)
(declare-fun lam5n5 () Int)
(declare-fun lam6n0 () Int)
(declare-fun lam6n1 () Int)
(declare-fun lam6n2 () Int)
(declare-fun lam6n3 () Int)
(declare-fun lam7n0 () Int)
(declare-fun lam7n1 () Int)
(declare-fun lam7n2 () Int)
(declare-fun lam7n3 () Int)
(declare-fun lam8n0 () Int)
(declare-fun lam8n1 () Int)
(declare-fun lam8n2 () Int)
(declare-fun lam8n3 () Int)
(declare-fun lam8n4 () Int)
(declare-fun lam8n5 () Int)
(declare-fun lam8n6 () Int)
(declare-fun lam8n7 () Int)
(declare-fun lam9n0 () Int)
(declare-fun lam9n1 () Int)
(declare-fun lam9n2 () Int)
(declare-fun lam9n3 () Int)
(declare-fun lam9n4 () Int)
(declare-fun lam9n5 () Int)
(declare-fun lam9n6 () Int)
(declare-fun lam9n7 () Int)
(declare-fun undef1 () Int)
(declare-fun undef57 () Int)
(declare-fun undef58 () Int)
(declare-fun undef2 () Int)
(declare-fun undef3 () Int)
(declare-fun undef4 () Int)
(declare-fun undef5 () Int)
(declare-fun undef17 () Int)
(declare-fun undef6 () Int)
(declare-fun undef13 () Int)
(declare-fun undef7 () Int)
(declare-fun undef14 () Int)
(declare-fun undef15 () Int)
(declare-fun undef16 () Int)
(declare-fun FV_arg1_2 () Int)
(declare-fun FV_arg2_2 () Int)
(declare-fun FV_arg3_2 () Int)
(declare-fun FV_arg4_2 () Int)
(declare-fun lam10n0 () Int)
(declare-fun lam10n1 () Int)
(declare-fun lam10n2 () Int)
(declare-fun lam11n0 () Int)
(declare-fun lam11n1 () Int)
(declare-fun lam11n2 () Int)
(declare-fun UndefDef0undef49_CT () Int)
(declare-fun UndefDef0undef49_arg1 () Int)
(declare-fun UndefDef0undef49_arg2 () Int)
(declare-fun UndefDef0undef49_arg3 () Int)
(declare-fun UndefDef0undef49_arg4 () Int)
(declare-fun lam12n0 () Int)
(declare-fun lam12n1 () Int)
(declare-fun lam12n2 () Int)
(declare-fun lam13n0 () Int)
(declare-fun lam13n1 () Int)
(declare-fun lam13n2 () Int)
(declare-fun lam14n0 () Int)
(declare-fun lam14n1 () Int)
(declare-fun lam14n2 () Int)
(declare-fun lam15n0 () Int)
(declare-fun lam15n1 () Int)
(declare-fun lam15n2 () Int)
(declare-fun UndefDef1undef53_CT () Int)
(declare-fun UndefDef1undef53_arg1 () Int)
(declare-fun UndefDef1undef53_arg2 () Int)
(declare-fun UndefDef1undef53_arg3 () Int)
(declare-fun UndefDef1undef53_arg4 () Int)
(declare-fun lam16n0 () Int)
(declare-fun lam16n1 () Int)
(declare-fun lam16n2 () Int)
(declare-fun lam17n0 () Int)
(declare-fun lam17n1 () Int)
(declare-fun lam17n2 () Int)
(declare-fun lam18n0 () Int)
(declare-fun lam18n1 () Int)
(declare-fun lam18n2 () Int)
(declare-fun FV_arg1_3 () Int)
(declare-fun FV_arg2_3 () Int)
(declare-fun FV_arg3_3 () Int)
(declare-fun FV_arg4_3 () Int)
(declare-fun FV_undef49_3 () Int)
(declare-fun FV_undef53_3 () Int)
(assert ( and ( <= ( - 1 ) Nl2arg11 ) ( <= Nl2arg11 1 ) ( <= ( - 1 ) Nl2arg21 ) ( <= Nl2arg21 1 ) ( <= ( - 1 ) Nl2arg31 ) ( <= Nl2arg31 1 ) ( <= ( - 1 ) Nl2arg41 ) ( <= Nl2arg41 1 ) ( <= ( - 1 ) Nl2arg12 ) ( <= Nl2arg12 1 ) ( <= ( - 1 ) Nl2arg22 ) ( <= Nl2arg22 1 ) ( <= ( - 1 ) Nl2arg32 ) ( <= Nl2arg32 1 ) ( <= ( - 1 ) Nl2arg42 ) ( <= Nl2arg42 1 ) ))
(assert ( or ( and ( >= lam0n0 0 ) ( >= lam0n1 0 ) ( >= lam0n2 0 ) ( >= lam0n3 0 ) ( >= lam0n4 0 ) ( >= lam0n5 0 ) ( > ( + ( * 2 lam0n1 ) ( * 3 lam0n2 ) ( * UndefCntr0_CT lam0n3 ) ( * Nl2CT1 lam0n4 ) ( * Nl2CT2 lam0n5 ) ( - 1 ) ) 0 ) ( = ( + ( * ( - 1 ) lam0n1 ) ( * ( - 1 ) lam0n2 ) ( * UndefCntr0_arg1 lam0n3 ) ( * Nl2arg11 lam0n4 ) ( * Nl2arg12 lam0n5 ) ) 0 ) ( = ( + ( * UndefCntr0_arg2 lam0n3 ) ( * Nl2arg21 lam0n4 ) ( * Nl2arg22 lam0n5 ) ) 0 ) ( = ( + ( * UndefCntr0_arg3 lam0n3 ) ( * Nl2arg31 lam0n4 ) ( * Nl2arg32 lam0n5 ) ) 0 ) ( = ( + ( * UndefCntr0_arg4 lam0n3 ) ( * Nl2arg41 lam0n4 ) ( * Nl2arg42 lam0n5 ) ) 0 ) ( = ( + ( * ( - 1 ) lam0n0 ) ( * 1 lam0n1 ) ( * UndefCntr0_undef49 lam0n3 ) ) 0 ) ( = ( * UndefCntr0_undef50 lam0n3 ) 0 ) ( = ( * UndefCntr0_undef51 lam0n3 ) 0 ) ( = ( * UndefCntr0_undef52 lam0n3 ) 0 ) ) ( and ( >= lam1n0 0 ) ( >= lam1n1 0 ) ( >= lam1n2 0 ) ( >= lam1n3 0 ) ( >= lam1n4 0 ) ( >= lam1n5 0 ) ( > ( + ( * 2 lam1n1 ) ( * 3 lam1n2 ) ( * UndefCntr0_CT lam1n3 ) ( * Nl2CT1 lam1n4 ) ( * Nl2CT2 lam1n5 ) ( - 1 ( + ( + ( + ( + Nl2CT1 ( * Nl2arg11 0 ) ) ( * Nl2arg21 0 ) ) ( * Nl2arg31 0 ) ) ( * Nl2arg41 0 ) ) ) ) 0 ) ( = ( + ( * ( - 1 ) lam1n1 ) ( * ( - 1 ) lam1n2 ) ( * UndefCntr0_arg1 lam1n3 ) ( * Nl2arg11 lam1n4 ) ( * Nl2arg12 lam1n5 ) ) 0 ) ( = ( + ( * UndefCntr0_arg2 lam1n3 ) ( * Nl2arg21 lam1n4 ) ( * Nl2arg22 lam1n5 ) ) 0 ) ( = ( + ( * UndefCntr0_arg3 lam1n3 ) ( * Nl2arg31 lam1n4 ) ( * Nl2arg32 lam1n5 ) ) 0 ) ( = ( + ( * UndefCntr0_arg4 lam1n3 ) ( * Nl2arg41 lam1n4 ) ( * Nl2arg42 lam1n5 ) ) 0 ) ( = ( + ( * ( - 1 ) lam1n0 ) ( * 1 lam1n1 ) ( * UndefCntr0_undef49 lam1n3 ) ( - ( + 0 ( * Nl2arg11 1 ) ) ) ) 0 ) ( = ( + ( * UndefCntr0_undef50 lam1n3 ) ( - ( + 0 ( * Nl2arg21 1 ) ) ) ) 0 ) ( = ( + ( * UndefCntr0_undef51 lam1n3 ) ( - ( + 0 ( * Nl2arg31 1 ) ) ) ) 0 ) ( = ( + ( * UndefCntr0_undef52 lam1n3 ) ( - ( + 0 ( * Nl2arg41 1 ) ) ) ) 0 ) ) ))
(assert ( or ( and ( >= lam0n0 0 ) ( >= lam0n1 0 ) ( >= lam0n2 0 ) ( >= lam0n3 0 ) ( >= lam0n4 0 ) ( >= lam0n5 0 ) ( > ( + ( * 2 lam0n1 ) ( * 3 lam0n2 ) ( * UndefCntr0_CT lam0n3 ) ( * Nl2CT1 lam0n4 ) ( * Nl2CT2 lam0n5 ) ( - 1 ) ) 0 ) ( = ( + ( * ( - 1 ) lam0n1 ) ( * ( - 1 ) lam0n2 ) ( * UndefCntr0_arg1 lam0n3 ) ( * Nl2arg11 lam0n4 ) ( * Nl2arg12 lam0n5 ) ) 0 ) ( = ( + ( * UndefCntr0_arg2 lam0n3 ) ( * Nl2arg21 lam0n4 ) ( * Nl2arg22 lam0n5 ) ) 0 ) ( = ( + ( * UndefCntr0_arg3 lam0n3 ) ( * Nl2arg31 lam0n4 ) ( * Nl2arg32 lam0n5 ) ) 0 ) ( = ( + ( * UndefCntr0_arg4 lam0n3 ) ( * Nl2arg41 lam0n4 ) ( * Nl2arg42 lam0n5 ) ) 0 ) ( = ( + ( * ( - 1 ) lam0n0 ) ( * 1 lam0n1 ) ( * UndefCntr0_undef49 lam0n3 ) ) 0 ) ( = ( * UndefCntr0_undef50 lam0n3 ) 0 ) ( = ( * UndefCntr0_undef51 lam0n3 ) 0 ) ( = ( * UndefCntr0_undef52 lam0n3 ) 0 ) ) ( and ( >= lam2n0 0 ) ( >= lam2n1 0 ) ( >= lam2n2 0 ) ( >= lam2n3 0 ) ( >= lam2n4 0 ) ( >= lam2n5 0 ) ( > ( + ( * 2 lam2n1 ) ( * 3 lam2n2 ) ( * UndefCntr0_CT lam2n3 ) ( * Nl2CT1 lam2n4 ) ( * Nl2CT2 lam2n5 ) ( - 1 ( + ( + ( + ( + Nl2CT2 ( * Nl2arg12 0 ) ) ( * Nl2arg22 0 ) ) ( * Nl2arg32 0 ) ) ( * Nl2arg42 0 ) ) ) ) 0 ) ( = ( + ( * ( - 1 ) lam2n1 ) ( * ( - 1 ) lam2n2 ) ( * UndefCntr0_arg1 lam2n3 ) ( * Nl2arg11 lam2n4 ) ( * Nl2arg12 lam2n5 ) ) 0 ) ( = ( + ( * UndefCntr0_arg2 lam2n3 ) ( * Nl2arg21 lam2n4 ) ( * Nl2arg22 lam2n5 ) ) 0 ) ( = ( + ( * UndefCntr0_arg3 lam2n3 ) ( * Nl2arg31 lam2n4 ) ( * Nl2arg32 lam2n5 ) ) 0 ) ( = ( + ( * UndefCntr0_arg4 lam2n3 ) ( * Nl2arg41 lam2n4 ) ( * Nl2arg42 lam2n5 ) ) 0 ) ( = ( + ( * ( - 1 ) lam2n0 ) ( * 1 lam2n1 ) ( * UndefCntr0_undef49 lam2n3 ) ( - ( + 0 ( * Nl2arg12 1 ) ) ) ) 0 ) ( = ( + ( * UndefCntr0_undef50 lam2n3 ) ( - ( + 0 ( * Nl2arg22 1 ) ) ) ) 0 ) ( = ( + ( * UndefCntr0_undef51 lam2n3 ) ( - ( + 0 ( * Nl2arg32 1 ) ) ) ) 0 ) ( = ( + ( * UndefCntr0_undef52 lam2n3 ) ( - ( + 0 ( * Nl2arg42 1 ) ) ) ) 0 ) ) ))
(assert ( or ( and ( >= lam3n0 0 ) ( >= lam3n1 0 ) ( >= lam3n2 0 ) ( >= lam3n3 0 ) ( >= lam3n4 0 ) ( >= lam3n5 0 ) ( > ( + ( * ( - 2 ) lam3n0 ) ( * 3 lam3n1 ) ( * 3 lam3n2 ) ( * UndefCntr1_CT lam3n3 ) ( * Nl2CT1 lam3n4 ) ( * Nl2CT2 lam3n5 ) ( - 1 ) ) 0 ) ( = ( + ( * ( - 1 ) lam3n0 ) ( * ( - 1 ) lam3n1 ) ( * UndefCntr1_arg1 lam3n3 ) ( * Nl2arg11 lam3n4 ) ( * Nl2arg12 lam3n5 ) ) 0 ) ( = ( + ( * UndefCntr1_arg2 lam3n3 ) ( * Nl2arg21 lam3n4 ) ( * Nl2arg22 lam3n5 ) ) 0 ) ( = ( + ( * UndefCntr1_arg3 lam3n3 ) ( * Nl2arg31 lam3n4 ) ( * Nl2arg32 lam3n5 ) ) 0 ) ( = ( + ( * UndefCntr1_arg4 lam3n3 ) ( * Nl2arg41 lam3n4 ) ( * Nl2arg42 lam3n5 ) ) 0 ) ( = ( + ( * 1 lam3n0 ) ( * ( - 1 ) lam3n2 ) ( * UndefCntr1_undef53 lam3n3 ) ) 0 ) ( = ( * UndefCntr1_undef54 lam3n3 ) 0 ) ( = ( * UndefCntr1_undef55 lam3n3 ) 0 ) ( = ( * UndefCntr1_undef56 lam3n3 ) 0 ) ) ( and ( >= lam4n0 0 ) ( >= lam4n1 0 ) ( >= lam4n2 0 ) ( >= lam4n3 0 ) ( >= lam4n4 0 ) ( >= lam4n5 0 ) ( > ( + ( * ( - 2 ) lam4n0 ) ( * 3 lam4n1 ) ( * 3 lam4n2 ) ( * UndefCntr1_CT lam4n3 ) ( * Nl2CT1 lam4n4 ) ( * Nl2CT2 lam4n5 ) ( - 1 ( + ( + ( + ( + Nl2CT1 ( * Nl2arg11 0 ) ) ( * Nl2arg21 0 ) ) ( * Nl2arg31 0 ) ) ( * Nl2arg41 0 ) ) ) ) 0 ) ( = ( + ( * ( - 1 ) lam4n0 ) ( * ( - 1 ) lam4n1 ) ( * UndefCntr1_arg1 lam4n3 ) ( * Nl2arg11 lam4n4 ) ( * Nl2arg12 lam4n5 ) ) 0 ) ( = ( + ( * UndefCntr1_arg2 lam4n3 ) ( * Nl2arg21 lam4n4 ) ( * Nl2arg22 lam4n5 ) ) 0 ) ( = ( + ( * UndefCntr1_arg3 lam4n3 ) ( * Nl2arg31 lam4n4 ) ( * Nl2arg32 lam4n5 ) ) 0 ) ( = ( + ( * UndefCntr1_arg4 lam4n3 ) ( * Nl2arg41 lam4n4 ) ( * Nl2arg42 lam4n5 ) ) 0 ) ( = ( + ( * 1 lam4n0 ) ( * ( - 1 ) lam4n2 ) ( * UndefCntr1_undef53 lam4n3 ) ( - ( + 0 ( * Nl2arg11 1 ) ) ) ) 0 ) ( = ( + ( * UndefCntr1_undef54 lam4n3 ) ( - ( + 0 ( * Nl2arg21 1 ) ) ) ) 0 ) ( = ( + ( * UndefCntr1_undef55 lam4n3 ) ( - ( + 0 ( * Nl2arg31 1 ) ) ) ) 0 ) ( = ( + ( * UndefCntr1_undef56 lam4n3 ) ( - ( + 0 ( * Nl2arg41 1 ) ) ) ) 0 ) ) ))
(assert ( or ( and ( >= lam3n0 0 ) ( >= lam3n1 0 ) ( >= lam3n2 0 ) ( >= lam3n3 0 ) ( >= lam3n4 0 ) ( >= lam3n5 0 ) ( > ( + ( * ( - 2 ) lam3n0 ) ( * 3 lam3n1 ) ( * 3 lam3n2 ) ( * UndefCntr1_CT lam3n3 ) ( * Nl2CT1 lam3n4 ) ( * Nl2CT2 lam3n5 ) ( - 1 ) ) 0 ) ( = ( + ( * ( - 1 ) lam3n0 ) ( * ( - 1 ) lam3n1 ) ( * UndefCntr1_arg1 lam3n3 ) ( * Nl2arg11 lam3n4 ) ( * Nl2arg12 lam3n5 ) ) 0 ) ( = ( + ( * UndefCntr1_arg2 lam3n3 ) ( * Nl2arg21 lam3n4 ) ( * Nl2arg22 lam3n5 ) ) 0 ) ( = ( + ( * UndefCntr1_arg3 lam3n3 ) ( * Nl2arg31 lam3n4 ) ( * Nl2arg32 lam3n5 ) ) 0 ) ( = ( + ( * UndefCntr1_arg4 lam3n3 ) ( * Nl2arg41 lam3n4 ) ( * Nl2arg42 lam3n5 ) ) 0 ) ( = ( + ( * 1 lam3n0 ) ( * ( - 1 ) lam3n2 ) ( * UndefCntr1_undef53 lam3n3 ) ) 0 ) ( = ( * UndefCntr1_undef54 lam3n3 ) 0 ) ( = ( * UndefCntr1_undef55 lam3n3 ) 0 ) ( = ( * UndefCntr1_undef56 lam3n3 ) 0 ) ) ( and ( >= lam5n0 0 ) ( >= lam5n1 0 ) ( >= lam5n2 0 ) ( >= lam5n3 0 ) ( >= lam5n4 0 ) ( >= lam5n5 0 ) ( > ( + ( * ( - 2 ) lam5n0 ) ( * 3 lam5n1 ) ( * 3 lam5n2 ) ( * UndefCntr1_CT lam5n3 ) ( * Nl2CT1 lam5n4 ) ( * Nl2CT2 lam5n5 ) ( - 1 ( + ( + ( + ( + Nl2CT2 ( * Nl2arg12 0 ) ) ( * Nl2arg22 0 ) ) ( * Nl2arg32 0 ) ) ( * Nl2arg42 0 ) ) ) ) 0 ) ( = ( + ( * ( - 1 ) lam5n0 ) ( * ( - 1 ) lam5n1 ) ( * UndefCntr1_arg1 lam5n3 ) ( * Nl2arg11 lam5n4 ) ( * Nl2arg12 lam5n5 ) ) 0 ) ( = ( + ( * UndefCntr1_arg2 lam5n3 ) ( * Nl2arg21 lam5n4 ) ( * Nl2arg22 lam5n5 ) ) 0 ) ( = ( + ( * UndefCntr1_arg3 lam5n3 ) ( * Nl2arg31 lam5n4 ) ( * Nl2arg32 lam5n5 ) ) 0 ) ( = ( + ( * UndefCntr1_arg4 lam5n3 ) ( * Nl2arg41 lam5n4 ) ( * Nl2arg42 lam5n5 ) ) 0 ) ( = ( + ( * 1 lam5n0 ) ( * ( - 1 ) lam5n2 ) ( * UndefCntr1_undef53 lam5n3 ) ( - ( + 0 ( * Nl2arg12 1 ) ) ) ) 0 ) ( = ( + ( * UndefCntr1_undef54 lam5n3 ) ( - ( + 0 ( * Nl2arg22 1 ) ) ) ) 0 ) ( = ( + ( * UndefCntr1_undef55 lam5n3 ) ( - ( + 0 ( * Nl2arg32 1 ) ) ) ) 0 ) ( = ( + ( * UndefCntr1_undef56 lam5n3 ) ( - ( + 0 ( * Nl2arg42 1 ) ) ) ) 0 ) ) ))
(assert ( and ( <= ( + Nl2CT1 ( * Nl2arg11 FV_arg1_2 ) ( * Nl2arg21 FV_arg2_2 ) ( * Nl2arg31 FV_arg3_2 ) ( * Nl2arg41 FV_arg4_2 ) ) 0 ) ( <= ( + Nl2CT2 ( * Nl2arg12 FV_arg1_2 ) ( * Nl2arg22 FV_arg2_2 ) ( * Nl2arg32 FV_arg3_2 ) ( * Nl2arg42 FV_arg4_2 ) ) 0 ) ))
(assert ( or ( not ( = UndefCntr0_arg1 0 ) ) ( not ( = UndefCntr0_arg2 0 ) ) ( not ( = UndefCntr0_arg3 0 ) ) ( not ( = UndefCntr0_arg4 0 ) ) ( not ( = UndefCntr0_undef49 0 ) ) ( not ( = UndefCntr0_undef50 0 ) ) ( not ( = UndefCntr0_undef51 0 ) ) ( not ( = UndefCntr0_undef52 0 ) ) ( = UndefCntr0_CT 0 ) ))
(assert ( or ( and ( = UndefCntr0_arg1 0 ) ( = UndefCntr0_arg2 0 ) ( = UndefCntr0_arg3 0 ) ( = UndefCntr0_arg4 0 ) ) ( or ( not ( = UndefCntr0_undef49 0 ) ) ( not ( = UndefCntr0_undef50 0 ) ) ( not ( = UndefCntr0_undef51 0 ) ) ( not ( = UndefCntr0_undef52 0 ) ) ) ))
(assert ( or ( not ( = UndefCntr1_arg1 0 ) ) ( not ( = UndefCntr1_arg2 0 ) ) ( not ( = UndefCntr1_arg3 0 ) ) ( not ( = UndefCntr1_arg4 0 ) ) ( not ( = UndefCntr1_undef53 0 ) ) ( not ( = UndefCntr1_undef54 0 ) ) ( not ( = UndefCntr1_undef55 0 ) ) ( not ( = UndefCntr1_undef56 0 ) ) ( = UndefCntr1_CT 0 ) ))
(assert ( or ( and ( = UndefCntr1_arg1 0 ) ( = UndefCntr1_arg2 0 ) ( = UndefCntr1_arg3 0 ) ( = UndefCntr1_arg4 0 ) ) ( or ( not ( = UndefCntr1_undef53 0 ) ) ( not ( = UndefCntr1_undef54 0 ) ) ( not ( = UndefCntr1_undef55 0 ) ) ( not ( = UndefCntr1_undef56 0 ) ) ) ))
(assert ( or ( and ( >= lam10n0 0 ) ( >= lam10n1 0 ) ( >= lam10n2 0 ) ( > ( + ( * 3 lam10n0 ) ( * Nl2CT1 lam10n1 ) ( * Nl2CT2 lam10n2 ) ( - 1 ) ) 0 ) ( = ( + ( * ( - 1 ) lam10n0 ) ( * Nl2arg11 lam10n1 ) ( * Nl2arg12 lam10n2 ) ) 0 ) ( = ( + ( * Nl2arg21 lam10n1 ) ( * Nl2arg22 lam10n2 ) ) 0 ) ( = ( + ( * Nl2arg31 lam10n1 ) ( * Nl2arg32 lam10n2 ) ) 0 ) ( = ( + ( * Nl2arg41 lam10n1 ) ( * Nl2arg42 lam10n2 ) ) 0 ) ) ( and ( and ( >= lam11n0 0 ) ( >= lam11n1 0 ) ( >= lam11n2 0 ) ( > ( + ( * 3 lam11n0 ) ( * Nl2CT1 lam11n1 ) ( * Nl2CT2 lam11n2 ) ( - 1 ( + 0 ( * ( - 1 ) UndefDef0undef49_CT ) ) ) ) 0 ) ( = ( + ( * ( - 1 ) lam11n0 ) ( * Nl2arg11 lam11n1 ) ( * Nl2arg12 lam11n2 ) ( - ( * UndefDef0undef49_arg1 ( - 1 ) ) ) ) 0 ) ( = ( + ( * Nl2arg21 lam11n1 ) ( * Nl2arg22 lam11n2 ) ( - ( * UndefDef0undef49_arg2 ( - 1 ) ) ) ) 0 ) ( = ( + ( * Nl2arg31 lam11n1 ) ( * Nl2arg32 lam11n2 ) ( - ( * UndefDef0undef49_arg3 ( - 1 ) ) ) ) 0 ) ( = ( + ( * Nl2arg41 lam11n1 ) ( * Nl2arg42 lam11n2 ) ( - ( * UndefDef0undef49_arg4 ( - 1 ) ) ) ) 0 ) ) ( and ( >= lam12n0 0 ) ( >= lam12n1 0 ) ( >= lam12n2 0 ) ( > ( + ( * 3 lam12n0 ) ( * Nl2CT1 lam12n1 ) ( * Nl2CT2 lam12n2 ) ( - 1 ( + ( + 2 0 ) ( * 1 UndefDef0undef49_CT ) ) ) ) 0 ) ( = ( + ( * ( - 1 ) lam12n0 ) ( * Nl2arg11 lam12n1 ) ( * Nl2arg12 lam12n2 ) ( - ( + ( - 1 ) ( * UndefDef0undef49_arg1 1 ) ) ) ) 0 ) ( = ( + ( * Nl2arg21 lam12n1 ) ( * Nl2arg22 lam12n2 ) ( - ( * UndefDef0undef49_arg2 1 ) ) ) 0 ) ( = ( + ( * Nl2arg31 lam12n1 ) ( * Nl2arg32 lam12n2 ) ( - ( * UndefDef0undef49_arg3 1 ) ) ) 0 ) ( = ( + ( * Nl2arg41 lam12n1 ) ( * Nl2arg42 lam12n2 ) ( - ( * UndefDef0undef49_arg4 1 ) ) ) 0 ) ) ( or ( = UndefCntr0_undef49 0 ) ( and ( >= lam13n0 0 ) ( >= lam13n1 0 ) ( >= lam13n2 0 ) ( > ( + ( * 3 lam13n0 ) ( * Nl2CT1 lam13n1 ) ( * Nl2CT2 lam13n2 ) ( - 1 ( + ( + ( + ( + ( + ( + ( + ( + UndefCntr0_CT 0 ) 0 ) 0 ) 0 ) ( * UndefCntr0_undef49 UndefDef0undef49_CT ) ) 0 ) 0 ) 0 ) ) ) 0 ) ( = ( + ( * ( - 1 ) lam13n0 ) ( * Nl2arg11 lam13n1 ) ( * Nl2arg12 lam13n2 ) ( - ( + UndefCntr0_arg1 ( * UndefDef0undef49_arg1 UndefCntr0_undef49 ) ) ) ) 0 ) ( = ( + ( * Nl2arg21 lam13n1 ) ( * Nl2arg22 lam13n2 ) ( - ( + UndefCntr0_arg2 ( * UndefDef0undef49_arg2 UndefCntr0_undef49 ) ) ) ) 0 ) ( = ( + ( * Nl2arg31 lam13n1 ) ( * Nl2arg32 lam13n2 ) ( - ( + UndefCntr0_arg3 ( * UndefDef0undef49_arg3 UndefCntr0_undef49 ) ) ) ) 0 ) ( = ( + ( * Nl2arg41 lam13n1 ) ( * Nl2arg42 lam13n2 ) ( - ( + UndefCntr0_arg4 ( * UndefDef0undef49_arg4 UndefCntr0_undef49 ) ) ) ) 0 ) ( = ( - UndefCntr0_undef50 ) 0 ) ( = ( - UndefCntr0_undef51 ) 0 ) ( = ( - UndefCntr0_undef52 ) 0 ) ) ) ) ))
(assert ( or ( and ( >= lam14n0 0 ) ( >= lam14n1 0 ) ( >= lam14n2 0 ) ( > ( + ( * 3 lam14n0 ) ( * Nl2CT1 lam14n1 ) ( * Nl2CT2 lam14n2 ) ( - 1 ) ) 0 ) ( = ( + ( * ( - 1 ) lam14n0 ) ( * Nl2arg11 lam14n1 ) ( * Nl2arg12 lam14n2 ) ) 0 ) ( = ( + ( * Nl2arg21 lam14n1 ) ( * Nl2arg22 lam14n2 ) ) 0 ) ( = ( + ( * Nl2arg31 lam14n1 ) ( * Nl2arg32 lam14n2 ) ) 0 ) ( = ( + ( * Nl2arg41 lam14n1 ) ( * Nl2arg42 lam14n2 ) ) 0 ) ) ( and ( and ( >= lam15n0 0 ) ( >= lam15n1 0 ) ( >= lam15n2 0 ) ( > ( + ( * 3 lam15n0 ) ( * Nl2CT1 lam15n1 ) ( * Nl2CT2 lam15n2 ) ( - 1 ( + ( + ( - 2 ) 0 ) ( * 1 UndefDef1undef53_CT ) ) ) ) 0 ) ( = ( + ( * ( - 1 ) lam15n0 ) ( * Nl2arg11 lam15n1 ) ( * Nl2arg12 lam15n2 ) ( - ( + ( - 1 ) ( * UndefDef1undef53_arg1 1 ) ) ) ) 0 ) ( = ( + ( * Nl2arg21 lam15n1 ) ( * Nl2arg22 lam15n2 ) ( - ( * UndefDef1undef53_arg2 1 ) ) ) 0 ) ( = ( + ( * Nl2arg31 lam15n1 ) ( * Nl2arg32 lam15n2 ) ( - ( * UndefDef1undef53_arg3 1 ) ) ) 0 ) ( = ( + ( * Nl2arg41 lam15n1 ) ( * Nl2arg42 lam15n2 ) ( - ( * UndefDef1undef53_arg4 1 ) ) ) 0 ) ) ( and ( >= lam16n0 0 ) ( >= lam16n1 0 ) ( >= lam16n2 0 ) ( > ( + ( * 3 lam16n0 ) ( * Nl2CT1 lam16n1 ) ( * Nl2CT2 lam16n2 ) ( - 1 ( + 3 ( * ( - 1 ) UndefDef1undef53_CT ) ) ) ) 0 ) ( = ( + ( * ( - 1 ) lam16n0 ) ( * Nl2arg11 lam16n1 ) ( * Nl2arg12 lam16n2 ) ( - ( * UndefDef1undef53_arg1 ( - 1 ) ) ) ) 0 ) ( = ( + ( * Nl2arg21 lam16n1 ) ( * Nl2arg22 lam16n2 ) ( - ( * UndefDef1undef53_arg2 ( - 1 ) ) ) ) 0 ) ( = ( + ( * Nl2arg31 lam16n1 ) ( * Nl2arg32 lam16n2 ) ( - ( * UndefDef1undef53_arg3 ( - 1 ) ) ) ) 0 ) ( = ( + ( * Nl2arg41 lam16n1 ) ( * Nl2arg42 lam16n2 ) ( - ( * UndefDef1undef53_arg4 ( - 1 ) ) ) ) 0 ) ) ( or ( = UndefCntr1_undef53 0 ) ( and ( >= lam17n0 0 ) ( >= lam17n1 0 ) ( >= lam17n2 0 ) ( > ( + ( * 3 lam17n0 ) ( * Nl2CT1 lam17n1 ) ( * Nl2CT2 lam17n2 ) ( - 1 ( + ( + ( + ( + ( + ( + ( + ( + UndefCntr1_CT 0 ) 0 ) 0 ) 0 ) ( * UndefCntr1_undef53 UndefDef1undef53_CT ) ) 0 ) 0 ) 0 ) ) ) 0 ) ( = ( + ( * ( - 1 ) lam17n0 ) ( * Nl2arg11 lam17n1 ) ( * Nl2arg12 lam17n2 ) ( - ( + UndefCntr1_arg1 ( * UndefDef1undef53_arg1 UndefCntr1_undef53 ) ) ) ) 0 ) ( = ( + ( * Nl2arg21 lam17n1 ) ( * Nl2arg22 lam17n2 ) ( - ( + UndefCntr1_arg2 ( * UndefDef1undef53_arg2 UndefCntr1_undef53 ) ) ) ) 0 ) ( = ( + ( * Nl2arg31 lam17n1 ) ( * Nl2arg32 lam17n2 ) ( - ( + UndefCntr1_arg3 ( * UndefDef1undef53_arg3 UndefCntr1_undef53 ) ) ) ) 0 ) ( = ( + ( * Nl2arg41 lam17n1 ) ( * Nl2arg42 lam17n2 ) ( - ( + UndefCntr1_arg4 ( * UndefDef1undef53_arg4 UndefCntr1_undef53 ) ) ) ) 0 ) ( = ( - UndefCntr1_undef54 ) 0 ) ( = ( - UndefCntr1_undef55 ) 0 ) ( = ( - UndefCntr1_undef56 ) 0 ) ) ) ) ))
(assert ( and ( >= lam18n0 0 ) ( >= lam18n1 0 ) ( >= lam18n2 0 ) ( > ( + ( * ( - 2 ) lam18n0 ) ( * Nl2CT1 lam18n1 ) ( * Nl2CT2 lam18n2 ) ( - 1 ) ) 0 ) ( = ( + ( * 1 lam18n0 ) ( * Nl2arg11 lam18n1 ) ( * Nl2arg12 lam18n2 ) ) 0 ) ( = ( + ( * Nl2arg21 lam18n1 ) ( * Nl2arg22 lam18n2 ) ) 0 ) ( = ( + ( * Nl2arg31 lam18n1 ) ( * Nl2arg32 lam18n2 ) ) 0 ) ( = ( + ( * Nl2arg41 lam18n1 ) ( * Nl2arg42 lam18n2 ) ) 0 ) ))
(assert ( and ( and ( <= ( + Nl2CT1 ( * Nl2arg11 FV_arg1_3 ) ( * Nl2arg21 FV_arg2_3 ) ( * Nl2arg31 FV_arg3_3 ) ( * Nl2arg41 FV_arg4_3 ) ) 0 ) ( <= ( + Nl2CT2 ( * Nl2arg12 FV_arg1_3 ) ( * Nl2arg22 FV_arg2_3 ) ( * Nl2arg32 FV_arg3_3 ) ( * Nl2arg42 FV_arg4_3 ) ) 0 ) ) ( or ( and ( <= ( * ( - 1 ) FV_undef49_3 ) 0 ) ( <= ( + 2 FV_undef49_3 ( * ( - 1 ) FV_arg1_3 ) ) 0 ) ( <= ( + 3 ( * ( - 1 ) FV_arg1_3 ) ) 0 ) ) ( and ( <= ( + ( - 2 ) ( * ( - 1 ) FV_arg1_3 ) FV_undef53_3 ) 0 ) ( <= ( + 3 ( * ( - 1 ) FV_arg1_3 ) ) 0 ) ( <= ( + 3 ( * ( - 1 ) FV_undef53_3 ) ) 0 ) ) ) ))
(check-sat)
(exit)
